(declare-fun xx_ack!83 () (_ BitVec 64))
(declare-fun x0_ack!84 () (_ BitVec 64))
(declare-fun x1_ack!81 () (_ BitVec 64))
(declare-fun x2_ack!82 () (_ BitVec 64))
(declare-fun FPCHECK_FSUB_ACCURACY ((_ BitVec 64) (_ BitVec 64)) Bool)
(assert (not (fp.lt ((_ to_fp 11 53) xx_ack!83) ((_ to_fp 11 53) #xabababababababab))))
(assert (not (fp.gt ((_ to_fp 11 53) xx_ack!83) ((_ to_fp 11 53) #xabababababababab))))
(assert (not (fp.lt ((_ to_fp 11 53) xx_ack!83) ((_ to_fp 11 53) x0_ack!84))))
(assert (fp.geq ((_ to_fp 11 53) xx_ack!83) ((_ to_fp 11 53) x1_ack!81)))
(assert (not (fp.gt ((_ to_fp 11 53) x1_ack!81) ((_ to_fp 11 53) xx_ack!83))))
(assert (fp.gt (fp.sub roundNearestTiesToEven
               ((_ to_fp 11 53) x2_ack!82)
               ((_ to_fp 11 53) x1_ack!81))
       ((_ to_fp 11 53) #x0000000000000000)))
(assert (FPCHECK_FSUB_ACCURACY xx_ack!83 x1_ack!81))

(check-sat)
(exit)
